without_loop_formulas/r_benton-county-transportation_20151216_1804_subgraph_tram+bus_gr_bz2_lp_lp_paths_tw3.lp.cnf
p cnf 184 405
c 33 select(1,3)
c 34 nots(1,3)
c 35 select(1,5)
c 36 nots(1,5)
c 37 reach(5)
c 38 reach(3)
c 39 select(3,1)
c 40 nots(3,1)
c 41 select(5,1)
c 42 nots(5,1)
c 43 select(5,3)
c 44 nots(5,3)
c 45 select(3,10)
c 46 nots(3,10)
c 47 select(3,5)
c 48 nots(3,5)
c 49 reach(10)
c 50 select(10,3)
c 51 nots(10,3)
c 52 select(10,4)
c 53 nots(10,4)
c 54 select(10,24)
c 55 nots(10,24)
c 56 select(10,17)
c 57 nots(10,17)
c 58 reach(17)
c 59 reach(24)
c 60 reach(4)
c 61 select(24,4)
c 62 nots(24,4)
c 63 select(24,10)
c 64 nots(24,10)
c 65 select(24,17)
c 66 nots(24,17)
c 67 select(17,10)
c 68 nots(17,10)
c 69 select(4,24)
c 70 nots(4,24)
c 71 select(4,10)
c 72 nots(4,10)
c 73 select(4,11)
c 74 nots(4,11)
c 75 select(17,24)
c 76 nots(17,24)
c 77 select(17,23)
c 78 nots(17,23)
c 79 reach(23)
c 80 reach(11)
c 81 select(11,4)
c 82 nots(11,4)
c 83 select(23,17)
c 84 nots(23,17)
c 85 select(23,21)
c 86 nots(23,21)
c 87 select(11,25)
c 88 nots(11,25)
c 89 select(11,21)
c 90 nots(11,21)
c 91 reach(21)
c 92 reach(25)
c 93 select(25,7)
c 94 nots(25,7)
c 95 select(25,11)
c 96 nots(25,11)
c 97 select(25,21)
c 98 nots(25,21)
c 99 select(21,11)
c 100 nots(21,11)
c 101 select(21,25)
c 102 nots(21,25)
c 103 select(21,23)
c 104 nots(21,23)
c 105 reach(7)
c 106 select(7,25)
c 107 nots(7,25)
c 121 edge(1,3)
c 122 edge(1,5)
c 123 edge(2,20)
c 124 edge(2,15)
c 125 edge(3,10)
c 126 edge(3,5)
c 127 edge(4,24)
c 128 edge(4,10)
c 129 edge(4,11)
c 130 edge(6,8)
c 131 edge(6,20)
c 132 edge(6,14)
c 133 edge(7,25)
c 134 edge(8,9)
c 135 edge(9,12)
c 136 edge(10,24)
c 137 edge(10,17)
c 138 edge(11,25)
c 139 edge(11,21)
c 140 edge(12,16)
c 141 edge(12,20)
c 142 edge(13,18)
c 143 edge(13,19)
c 144 edge(14,18)
c 145 edge(16,22)
c 146 edge(17,24)
c 147 edge(17,23)
c 148 edge(19,22)
c 149 edge(21,25)
c 150 edge(21,23)
c 151 reach(1)
c 152 goal(25)
33 34 0
-33 -34 0
35 36 0
-35 -36 0
153 -35 0
-153 35 0
154 -33 0
-154 33 0
39 -38 40 0
-39 38 0
-39 -40 0
41 -37 42 0
-41 37 0
-41 -42 0
43 -37 44 0
-43 37 0
-43 -44 0
45 -38 46 0
-45 38 0
-45 -46 0
47 -38 48 0
-47 38 0
-47 -48 0
155 -47 0
-155 47 0
156 -45 0
-156 45 0
157 -43 0
-157 43 0
50 -49 51 0
-50 49 0
-50 -51 0
52 -49 53 0
-52 49 0
-52 -53 0
54 -49 55 0
-54 49 0
-54 -55 0
56 -49 57 0
-56 49 0
-56 -57 0
158 -56 0
-158 56 0
159 -54 0
-159 54 0
160 -52 0
-160 52 0
161 -50 0
-161 50 0
61 -59 62 0
-61 59 0
-61 -62 0
63 -59 64 0
-63 59 0
-63 -64 0
65 -59 66 0
-65 59 0
-65 -66 0
67 -58 68 0
-67 58 0
-67 -68 0
69 -60 70 0
-69 60 0
-69 -70 0
71 -60 72 0
-71 60 0
-71 -72 0
73 -60 74 0
-73 60 0
-73 -74 0
75 -58 76 0
-75 58 0
-75 -76 0
77 -58 78 0
-77 58 0
-77 -78 0
162 -77 0
-162 77 0
163 -75 0
-163 75 0
164 -73 0
-164 73 0
165 -71 0
-165 71 0
166 -69 0
-166 69 0
167 -67 0
-167 67 0
168 -65 0
-168 65 0
169 -63 0
-169 63 0
170 -61 0
-170 61 0
81 -80 82 0
-81 80 0
-81 -82 0
83 -79 84 0
-83 79 0
-83 -84 0
85 -79 86 0
-85 79 0
-85 -86 0
87 -80 88 0
-87 80 0
-87 -88 0
89 -80 90 0
-89 80 0
-89 -90 0
171 -89 0
-171 89 0
172 -87 0
-172 87 0
173 -85 0
-173 85 0
174 -83 0
-174 83 0
175 -81 0
-175 81 0
93 -92 94 0
-93 92 0
-93 -94 0
95 -92 96 0
-95 92 0
-95 -96 0
97 -92 98 0
-97 92 0
-97 -98 0
99 -91 100 0
-99 91 0
-99 -100 0
101 -91 102 0
-101 91 0
-101 -102 0
103 -91 104 0
-103 91 0
-103 -104 0
176 -103 0
-176 103 0
177 -101 0
-177 101 0
178 -99 0
-178 99 0
179 -97 0
-179 97 0
180 -95 0
-180 95 0
105 -93 0
-105 93 0
106 -105 107 0
-106 105 0
-106 -107 0
181 -106 0
-181 106 0
40 -38 39 0
-40 38 0
-40 -39 0
42 -37 41 0
-42 37 0
-42 -41 0
51 -49 50 0
-51 49 0
-51 -50 0
44 -37 43 0
-44 37 0
-44 -43 0
62 -59 61 0
-62 59 0
-62 -61 0
53 -49 52 0
-53 49 0
-53 -52 0
82 -80 81 0
-82 80 0
-82 -81 0
94 -92 93 0
-94 92 0
-94 -93 0
64 -59 63 0
-64 59 0
-64 -63 0
68 -58 67 0
-68 58 0
-68 -67 0
96 -92 95 0
-96 92 0
-96 -95 0
100 -91 99 0
-100 91 0
-100 -99 0
66 -59 65 0
-66 59 0
-66 -65 0
84 -79 83 0
-84 79 0
-84 -83 0
98 -92 97 0
-98 92 0
-98 -97 0
86 -79 85 0
-86 79 0
-86 -85 0
34 33 0
-34 -33 0
36 35 0
-36 -35 0
46 -38 45 0
-46 38 0
-46 -45 0
48 -38 47 0
-48 38 0
-48 -47 0
70 -60 69 0
-70 60 0
-70 -69 0
72 -60 71 0
-72 60 0
-72 -71 0
74 -60 73 0
-74 60 0
-74 -73 0
107 -105 106 0
-107 105 0
-107 -106 0
55 -49 54 0
-55 49 0
-55 -54 0
57 -49 56 0
-57 49 0
-57 -56 0
88 -80 87 0
-88 80 0
-88 -87 0
90 -80 89 0
-90 80 0
-90 -89 0
76 -58 75 0
-76 58 0
-76 -75 0
78 -58 77 0
-78 58 0
-78 -77 0
102 -91 101 0
-102 91 0
-102 -101 0
104 -91 103 0
-104 91 0
-104 -103 0
182 -93 0
-182 93 0
183 -95 0
-183 95 0
184 -97 0
-184 97 0
92 0
-117 0
-35 -33 0
-43 -41 -37 0
-45 -39 -38 0
-45 -47 -38 0
-47 -39 -38 0
-52 -50 -49 0
-54 -50 -49 0
-54 -52 -49 0
-54 -56 -49 0
-56 -50 -49 0
-56 -52 -49 0
-63 -61 -59 0
-65 -61 -59 0
-65 -63 -59 0
-69 -71 -60 0
-69 -73 -60 0
-73 -71 -60 0
-75 -67 -58 0
-75 -77 -58 0
-77 -67 -58 0
-85 -83 -79 0
-87 -81 -80 0
-87 -89 -80 0
-89 -81 -80 0
-95 -93 -92 0
-97 -93 -92 0
-97 -95 -92 0
-101 -99 -91 0
-101 -103 -91 0
-103 -99 -91 0
121 0
122 0
123 0
124 0
125 0
126 0
127 0
128 0
129 0
130 0
131 0
132 0
133 0
134 0
135 0
136 0
137 0
138 0
139 0
140 0
141 0
142 0
143 0
144 0
145 0
146 0
147 0
148 0
149 0
150 0
151 0
152 0
-1 0
-2 0
-3 0
-4 0
-5 0
-6 0
-7 0
-8 0
-9 0
-10 0
-11 0
-12 0
-13 0
-14 0
-15 0
-16 0
-17 0
-18 0
-19 0
-20 0
-21 0
-22 0
-23 0
-24 0
-25 0
-26 0
-27 0
-28 0
-29 0
-30 0
-31 0
-32 0
-37 153 155 0
37 -153 0
37 -155 0
-38 154 157 161 0
38 -154 0
38 -157 0
38 -161 0
-49 156 165 167 169 0
49 -156 0
49 -165 0
49 -167 0
49 -169 0
-58 158 168 174 0
58 -158 0
58 -168 0
58 -174 0
-59 159 163 166 0
59 -159 0
59 -163 0
59 -166 0
-60 160 170 175 0
60 -160 0
60 -170 0
60 -175 0
-79 162 176 0
79 -162 0
79 -176 0
-80 164 178 180 0
80 -164 0
80 -178 0
80 -180 0
-91 171 173 179 0
91 -171 0
91 -173 0
91 -179 0
-92 172 177 181 0
92 -172 0
92 -177 0
92 -181 0
-108 0
-109 0
-110 0
-111 0
-112 0
-113 0
-114 0
-115 0
-116 0
-117 182 183 184 0
117 -182 0
117 -183 0
117 -184 0
-118 0
-119 0
-120 0
